p cnf 150 45
x 1 3 5 7 8 -9 -11 13 -14 -15 17 21 -23 25 -26 29 30 -31 -32 -33 -34 -35 -37 38 39 40 41 42 -43 45 -47 -49 51 -52 -55 56 58 -60 -62 63 -64 67 -68 72 73 74 -78 -79 -80 -83 -86 87 88 89 -90 -93 95 -96 98 99 103 104 105 107 -112 115 117 118 -120 -123 124 129 -130 -135 -136 -137 -138 140 -141 -142 -144 148 150 0
x -1 -2 -3 8 10 13 -14 -16 18 -21 -22 -24 25 -29 -31 -33 34 35 -39 -41 -42 43 45 52 -53 54 -56 -58 -59 61 62 64 -65 -68 70 71 72 -75 80 -81 82 -83 -87 89 -91 -93 -95 96 -98 -102 -104 -110 111 114 -118 119 -120 -124 -126 -127 128 -133 135 138 -139 -140 -141 -143 148 149 150 0
x 1 -2 8 -9 -10 11 13 14 -15 17 19 -23 -25 26 27 -29 33 -35 -38 39 40 41 42 -43 -45 47 -49 -50 51 57 58 -59 -61 63 -66 68 -73 74 -76 81 -83 84 -86 89 -92 93 -100 -103 -104 106 -108 -111 -112 -116 -118 -119 -123 -126 -127 128 129 -130 -131 136 137 138 139 140 -141 143 -144 145 -147 150 0
x 1 -2 -3 4 6 -8 9 10 11 12 13 -14 16 -17 -18 -24 -26 27 -32 -35 36 -37 38 -40 41 -42 -44 45 46 -48 -51 -55 56 -57 60 -61 65 -67 68 -70 -77 -79 81 82 83 84 -85 86 -88 -90 91 -92 -95 97 99 -100 103 -111 112 -113 115 117 -118 -124 125 -129 -130 134 -135 -136 -138 -140 143 144 145 -146 -148 149 -150 0
x 1 2 -3 -4 5 8 12 15 16 17 -18 -28 29 -31 35 39 40 -41 43 -44 -45 46 47 49 -50 -53 58 -60 -62 -64 -66 68 70 -71 72 -73 75 78 81 -82 83 -85 -86 -88 89 92 -95 -97 -99 100 104 105 109 111 113 115 117 118 -124 125 126 -128 -133 136 137 138 -139 -141 142 146 147 0
x -1 -4 8 9 10 -14 15 -17 20 26 -28 29 31 34 -36 -39 -40 -42 43 44 46 -48 -49 50 51 53 54 56 58 62 -63 65 -66 68 -71 72 -75 -77 82 -83 -91 -93 -94 95 -96 -97 -98 100 -101 104 105 -106 -107 108 -109 -115 117 118 120 121 -122 123 -126 -129 131 132 -134 -135 -136 137 138 139 142 -143 -149 -150 0
x 1 -2 -3 -4 5 9 -10 13 -14 16 -17 18 -19 -20 22 24 -25 27 -28 -29 -31 -32 -34 35 36 37 40 -46 -47 -48 -50 52 -53 -55 -56 57 -58 59 -60 62 66 -67 -68 70 -79 -84 -85 86 -89 -90 91 -92 -95 98 99 -102 -104 -105 -109 -110 -114 115 -116 117 118 -120 122 123 -124 125 -128 -129 -131 132 134 -136 138 -139 140 -141 142 -144 -146 0
x -2 9 10 11 12 -13 15 -16 -18 -19 -22 23 24 25 -30 34 -35 -37 -39 -40 -41 42 44 45 47 -48 -49 -52 -53 54 56 -57 60 -62 63 -64 -65 67 -69 -70 -72 73 74 -81 83 84 -85 -86 91 93 95 -96 97 98 -99 100 101 -104 106 -107 -109 -111 -112 -113 114 117 118 -120 122 -126 128 -129 -130 -131 132 -133 134 137 138 139 142 -145 -146 -148 -149 0
x -1 3 4 6 8 11 12 -13 -16 18 -19 -20 -21 24 25 -27 29 30 31 -34 -37 38 -40 41 45 -46 -49 50 -51 52 -53 54 55 56 57 58 59 60 -63 -64 -68 69 71 -72 -74 76 -77 78 80 -82 83 84 87 93 -95 -96 -98 -100 -101 -104 105 106 -107 -108 110 112 -114 -115 117 -118 119 -128 -129 -132 -138 -140 -145 -148 149 0
x 6 7 8 -9 -10 12 15 -16 -19 -27 -29 -36 41 -44 46 -49 52 -54 58 -59 -63 72 -73 -74 -77 -78 79 80 -82 84 -86 89 91 92 -96 -97 -100 101 -104 -110 -111 -113 -114 115 117 118 -119 -120 -121 -124 125 126 127 -130 132 133 -138 -139 141 -144 147 -148 149 150 0
x 1 -5 6 -14 16 -17 -20 22 23 24 37 40 41 -43 -47 -48 -49 -51 58 -59 -60 -63 -65 -66 -67 -74 75 -76 -78 80 84 85 86 -88 93 -96 -98 -99 -100 -101 105 -109 -110 -111 -113 -116 119 -121 -126 -130 -132 134 -136 137 -138 139 -140 144 -146 148 -149 150 0
x -2 -4 -9 11 15 17 -18 19 -23 25 28 29 30 31 32 34 -38 -39 -42 -45 46 51 52 54 55 56 57 58 60 68 76 -77 -79 -80 83 -86 88 -89 90 -91 -92 -93 -94 -96 99 102 103 -105 -106 -109 -110 -113 114 -115 116 -117 118 -122 -123 124 125 -126 128 -129 -130 131 133 134 -136 139 140 -144 145 147 150 0
x 4 5 6 -8 9 -10 -11 -12 14 -15 16 -19 23 -24 25 26 -27 29 32 -35 -36 -37 -39 -41 45 -47 -49 -50 -51 52 -59 60 -61 64 -66 67 68 69 74 77 78 79 80 83 -84 85 89 90 -93 96 -100 -101 -103 -105 108 -110 -113 -120 122 -124 -125 -127 129 131 134 -135 -137 -139 -140 142 -146 -147 148 0
x -2 4 -5 6 7 -8 10 -11 12 13 -14 15 -16 -17 -18 21 -22 24 -25 27 28 -29 31 -33 34 -35 -37 38 46 -48 49 -51 53 54 -55 58 62 63 65 -67 -68 70 -71 -72 -73 -74 -77 -79 -81 82 -85 -93 95 -97 98 100 101 103 -104 -105 107 -113 -114 116 117 -120 -126 127 128 130 -132 -134 -136 138 -140 141 -146 -148 150 0
x 1 2 -3 -6 8 11 15 -16 -17 -18 22 27 -30 -32 -36 -38 40 -42 -43 46 -49 50 51 -57 -58 59 60 -61 63 -68 71 73 -76 79 80 -81 -83 -84 -89 90 -93 95 -97 98 99 100 -102 -103 106 107 109 110 -111 113 -114 115 117 119 -120 -121 122 -123 -124 -130 -131 132 133 -134 -136 138 139 -140 141 -143 -144 -146 0
x -1 2 -3 4 -5 6 -7 -10 -11 12 -15 -16 -18 -19 -20 22 23 -26 -27 -33 -34 -36 -37 38 -39 -41 42 -43 45 -46 47 -49 50 51 52 53 55 -57 -59 64 68 71 72 -73 74 75 76 -77 -82 -83 -90 -92 100 101 103 104 105 109 110 113 -115 -116 -117 -118 -119 -120 -121 -122 -123 124 -125 128 129 130 -132 133 -135 -136 137 138 140 141 143 144 146 -147 -149 0
x -1 -4 -6 8 -9 -14 -15 -16 -19 20 -21 22 -24 -26 -29 31 32 34 -36 -37 39 44 45 -46 47 50 51 -54 55 -56 57 -59 -60 -61 -63 68 69 70 -71 -72 -73 75 76 -78 80 -81 -82 91 -92 -93 -95 96 -97 -98 99 -101 103 104 -105 109 -110 115 117 120 121 -122 -123 -127 128 -130 -131 -132 -136 -137 138 139 -140 141 142 -146 147 -148 0
x -1 7 -8 -10 11 -14 15 16 19 -22 -23 24 29 -30 -32 35 -37 38 43 45 51 53 55 61 -64 -70 -74 75 76 77 -78 -80 -82 83 85 86 88 89 91 -95 -96 98 -102 105 106 109 110 111 -112 113 114 -115 -116 118 -122 -124 -125 -126 -127 129 131 132 -135 136 137 138 140 141 143 146 -148 0
x 1 -3 4 -5 -7 -8 10 11 14 -15 16 -21 22 -23 -24 25 -26 29 35 36 -37 -38 -41 -42 -43 50 54 60 61 -63 -64 -66 -69 -70 -72 74 75 -76 -77 -78 79 80 85 86 -88 -89 -92 93 98 99 -100 102 -103 105 106 107 109 -113 115 -116 -118 -121 -123 126 -130 -132 133 -136 -137 138 -139 -140 142 145 146 -147 -149 0
x -4 -6 -7 -12 13 -17 -18 -20 21 -22 -24 25 -27 -32 34 36 38 -40 -42 -44 45 -46 47 51 56 60 -61 62 -63 -64 67 68 71 72 73 -75 -76 78 -80 83 -85 86 88 -89 91 -94 -96 97 99 -100 -102 105 107 -108 -109 -111 113 -114 116 -122 123 -124 -127 -131 -132 -133 134 140 -142 144 146 148 -150 0
x 1 -2 -3 4 -5 -6 7 10 -13 -19 23 -26 28 31 36 37 38 39 40 43 -45 47 -51 52 -54 -57 58 -60 -62 64 -69 72 73 -75 76 -77 78 -79 -85 -90 91 -93 -94 -99 100 102 -104 -105 106 109 -110 111 -114 -116 -117 -120 -121 122 -125 129 130 131 -132 -134 -137 138 142 143 -144 145 146 147 148 0
x 2 -5 7 8 12 15 -19 21 25 -26 -27 -28 -29 -33 35 36 -40 41 43 -44 -46 -50 -54 -55 57 58 -60 -62 -63 64 -66 69 71 -76 -78 -82 87 -91 -92 -94 95 96 -97 98 99 101 104 -108 111 114 -116 117 119 -120 122 125 127 -128 -129 -132 134 135 -136 137 -139 -143 -145 -149 150 0
x 1 4 -5 -9 -10 -11 14 16 -22 -24 25 -26 -27 -28 -29 32 -33 -37 -41 -45 -46 48 -50 -51 -52 -56 -58 -62 -64 69 -70 71 -72 -73 -74 81 83 84 -85 -86 88 93 -94 -101 102 103 -104 -106 -108 -110 -111 112 -113 117 -119 120 122 -124 125 127 -129 131 -132 133 135 136 139 143 145 147 -149 150 0
x 4 5 7 8 11 -12 14 16 17 -18 -19 -20 -22 25 -27 30 34 37 -40 44 47 -48 -49 -51 -53 -54 55 -56 -57 -58 59 61 63 -66 -67 -69 70 -71 72 75 77 78 -81 82 84 -85 86 -87 88 -90 -93 -95 98 -99 -104 107 -108 109 110 111 -112 -115 -117 118 121 124 128 129 135 136 -139 141 143 145 147 148 -149 150 0
x 1 -2 -3 5 -7 -8 -9 10 -11 -13 14 -15 17 19 20 -21 22 23 25 27 -28 29 -31 32 33 34 -35 38 -40 41 42 43 44 45 46 -47 -49 50 -52 53 56 57 60 -61 -65 66 -68 -70 72 73 -75 76 78 80 -81 -83 -84 -85 88 -89 90 91 93 -95 -96 -97 99 103 105 -108 -109 -111 112 -116 -117 -119 120 -126 127 -128 129 -131 133 -134 -136 137 138 145 147 149 150 0
x 1 3 -6 -8 14 -18 19 20 -21 23 27 -28 30 -32 -33 -35 -36 -38 41 43 -44 46 -47 49 -52 53 54 -55 57 -60 -63 64 -67 -69 -70 -71 -73 -74 -75 -76 -78 82 -83 -86 -87 91 92 -97 98 -100 102 104 107 110 -112 116 -119 -120 125 131 -133 134 136 139 -140 -144 145 149 150 0
x 1 -4 5 -6 -8 -9 -10 -11 13 -14 18 -19 20 -21 22 -23 24 26 -27 29 32 33 34 36 44 -46 48 -49 -52 53 -55 -58 63 -66 69 70 -73 76 -79 80 -82 -85 86 -89 -91 93 -94 96 -102 -103 -104 105 107 108 112 113 -114 116 120 123 -124 125 126 127 128 -129 -130 -135 -137 -141 143 -146 -148 149 -150 0
x 1 -3 -4 -5 -6 10 -12 -13 -14 -16 17 -18 19 24 25 28 33 34 35 36 39 40 42 44 45 46 -47 -49 -51 53 -60 64 -65 -66 67 70 -74 -77 78 -79 -80 83 85 88 90 -91 92 93 -95 96 -97 98 -99 -100 101 102 104 -108 -115 -117 -121 -127 -128 -129 130 132 -135 137 -140 -141 -142 -146 -148 -150 0
x 2 3 -4 6 7 -10 13 15 -17 22 27 -30 32 -34 -36 40 41 46 49 -51 54 -55 -60 61 -69 -75 76 78 80 -81 -83 87 88 89 -90 91 -94 -95 98 100 -104 -106 109 -111 -112 -113 117 -118 120 121 122 123 -124 -128 -129 -130 131 -134 -136 138 -142 146 148 -149 0
x -2 -3 -6 7 -10 11 -15 -16 -18 19 25 27 28 -30 -33 35 37 39 -40 41 43 45 46 -50 52 -54 57 58 -60 -61 62 -66 -67 72 -73 -76 79 80 84 85 -86 -87 -88 89 -92 94 -104 106 107 108 -109 -110 -114 115 116 -117 124 129 135 -136 137 -139 -142 -143 147 -148 149 0
x -1 -3 5 8 9 -11 -12 14 15 -20 -26 -27 30 31 32 -34 -35 36 -39 -40 -42 43 -45 46 -47 -50 -51 52 -54 55 -61 -63 -64 65 -68 -69 71 75 76 79 81 85 -86 -88 89 -90 95 96 97 -104 106 107 109 -110 111 112 113 -114 -116 124 -126 127 128 130 134 135 -136 -137 -138 -140 -141 142 148 -150 0
x 1 4 9 -11 14 15 -18 19 20 21 25 -35 36 -38 39 40 -43 44 46 -48 -50 51 -53 -54 57 -64 -66 67 -68 -69 70 -73 76 -77 78 82 86 87 -88 89 -90 -92 93 -97 -102 107 108 109 110 -114 -115 -116 -117 -118 -119 -121 -122 126 127 129 -130 131 132 -133 -135 137 138 139 -140 141 -143 144 146 148 -149 0
x 7 8 9 -11 -14 15 16 19 -20 22 23 -24 26 -28 -29 -30 -31 -32 33 -36 38 -39 -42 -43 44 -46 -48 -49 50 -53 -54 -58 -62 -63 -64 -65 -66 -69 70 71 73 -74 -75 -78 82 84 85 -87 -88 89 90 91 -92 -94 96 99 101 102 -103 105 -106 -109 110 112 114 115 116 117 119 -121 122 -125 -128 129 133 -136 -138 142 145 148 -150 0
x -1 -2 4 10 -15 17 -18 -19 -22 24 25 -30 -31 -38 40 43 44 45 -50 51 53 -54 55 -59 -60 63 64 65 -66 -67 -69 70 -72 73 74 76 -78 80 81 82 84 -88 90 93 95 -96 97 -99 -100 101 108 -109 113 114 115 -117 -125 126 -129 -130 132 134 -135 -140 143 144 145 147 149 0
x 1 3 -4 -5 8 9 -10 13 15 -19 -20 23 25 -26 28 -29 -33 -36 -37 39 41 -42 -43 -44 -45 46 48 49 50 51 52 -54 -55 56 -61 -62 64 -66 -68 -69 76 80 -82 83 -84 85 -86 -88 -91 92 -96 100 -102 -104 -105 -108 110 111 -112 113 -117 120 124 -126 127 -131 -134 -135 139 140 -141 -142 144 -145 -147 -150 0
x 1 -2 4 7 10 14 -15 17 18 19 -20 21 22 -24 -26 -27 -29 -30 -31 32 33 35 -37 -38 -41 -48 49 56 -59 -61 -62 -63 64 -65 66 68 71 72 75 77 78 80 81 -82 83 -84 87 -89 90 -95 96 97 -99 -100 -105 -107 108 -109 -111 -112 115 -116 118 121 123 124 125 -126 127 128 129 -130 -131 -134 -137 139 141 -142 144 145 146 149 -150 0
x -4 -6 -7 -10 17 21 23 -24 -26 27 -28 -29 -30 31 33 -34 -35 36 40 41 -42 -45 -47 -48 -49 52 -55 57 -60 61 62 -63 -65 67 -72 -74 -75 76 -77 -79 80 -84 86 87 -91 92 93 94 -97 -98 -101 105 106 107 -108 -109 112 113 -114 -115 -117 118 -124 -125 126 128 129 132 135 136 137 -138 141 -143 144 145 -147 149 -150 0
x -4 -7 9 11 12 -13 14 16 -17 -18 20 22 23 25 26 27 -28 -29 -30 32 33 34 35 36 -39 41 44 -47 48 -49 -50 -51 -54 -55 56 -57 -58 63 64 -66 -68 -71 75 76 -78 -79 80 -82 83 -86 -87 -88 -92 93 95 96 97 -102 -103 -104 -109 -110 113 -114 115 -116 118 119 120 122 123 124 -126 128 130 133 -134 136 141 -142 -143 -146 -147 -148 -149 0
x -1 -2 8 10 -12 -14 15 16 17 18 -19 20 -21 -22 24 25 26 28 29 -31 -35 37 -41 -42 45 49 -50 52 53 -54 59 -60 -63 -65 -67 71 -72 -75 78 79 82 83 -84 -85 -86 -88 -91 92 96 98 -99 101 102 -104 -106 -107 110 113 116 117 118 -119 -124 125 -128 131 133 -134 -135 137 140 -142 -143 144 145 -146 0
x 2 4 5 6 10 11 -12 13 14 -16 -22 23 -24 -25 26 -27 -28 31 34 -37 -38 39 -43 -45 47 48 -49 -50 55 56 -59 -60 61 -63 -64 -66 67 -69 -71 -72 -76 78 83 84 -86 -87 -90 92 93 -94 -101 -103 -105 108 -109 110 -112 114 -115 116 119 120 -122 -123 -125 128 129 133 134 -136 137 -139 140 142 -144 -146 -147 149 0
x 7 13 -17 25 -26 27 29 -30 31 -32 33 37 -38 -39 40 -41 43 -45 -51 -52 53 54 -57 59 60 63 -65 -66 -69 71 72 75 -76 79 -82 -83 85 -86 -87 -89 90 -94 -95 96 100 -101 -108 -110 -111 115 119 -121 123 -125 126 130 -131 132 -134 -137 140 142 -145 146 -150 0
x -1 -2 -3 -5 8 12 14 15 -16 18 20 22 24 25 28 29 39 -45 -46 -49 52 56 -58 60 -63 -64 -66 72 74 -77 -78 -79 -80 81 84 -89 91 93 -97 -100 -102 105 -106 109 110 -111 113 114 -115 -116 118 -122 123 -125 128 129 -130 131 132 133 134 -137 138 -140 141 -144 145 -146 148 0
x 3 4 -7 -8 -11 -13 16 -20 21 22 24 25 -27 28 29 -30 31 32 -34 -35 -36 -38 -41 43 44 -48 -49 -51 56 -59 61 -62 -63 65 66 -68 -69 70 71 -77 78 80 81 -82 -85 -86 -87 -89 -90 -96 -97 -99 103 -107 -109 111 -112 -113 114 -115 116 -117 -120 -121 -122 124 -125 -128 -130 -131 -133 -135 136 -137 140 144 145 -146 147 0
x 2 -3 -4 -5 6 9 11 12 15 -17 -18 -20 -21 -22 23 26 29 -30 -32 33 41 -43 45 -46 -48 49 50 -53 56 58 -64 -66 -68 72 78 79 81 -82 83 -84 85 86 -87 89 93 95 -97 -99 100 107 110 113 116 -119 121 -122 -123 -127 -132 -133 135 -139 140 141 142 145 146 147 -148 -150 0
x 1 -2 -3 -4 -5 -6 -7 10 15 16 -18 -24 -26 -28 29 -30 -31 -32 -33 36 37 -38 42 -45 46 -47 -48 -49 52 54 57 -59 -60 61 -62 -64 65 -67 -68 -69 70 71 72 -75 77 78 -79 81 82 83 -87 88 90 -92 93 -96 99 102 -107 -108 110 -112 114 -118 120 122 -123 -124 125 126 128 -129 130 132 133 -134 135 137 -138 139 -140 -143 -145 147 150 0
g -30